%%%mzn-stat: initTime=0.104215066
%%%mzn-stat: objective=381
%%%mzn-stat: nodes=2057
%%%mzn-stat: restarts=0
%%%mzn-stat: peakDepth=89
%%%mzn-stat: solveTime=0.195449373
%%%mzn-stat: variables=518
%%%mzn-stat: propagators=553
%%%mzn-stat: failures=1355
%%%mzn-stat: propagations=243742
%%%mzn-stat: nogoods=1355
%%%mzn-stat: AverageConflictSize=11.94169741697417
%%%mzn-stat: NumUnitNogoodsLearned=380
%%%mzn-stat: AverageLearnedNogoodLength=41.20664206642066
%%%mzn-stat: AverageBacktrackAmount=0
%%%mzn-stat: AverageLbd=5.1321033210332105
%%%mzn-stat-end
maxleg = 381;
succ = array1d(1..20,[4, 11, 12, 16, 3, 8, 9, 15, 5, 6, 18, 20, 19, 1, 17, 13, 2, 7, 10, 14]);
% time elapsed: 5.20 s
----------
==========
% time elapsed: 5.20 s
%%%mzn-stat: initTime=0.104215066
%%%mzn-stat: objective=381
%%%mzn-stat: nodes=2057
%%%mzn-stat: restarts=0
%%%mzn-stat: peakDepth=89
%%%mzn-stat: solveTime=0.19545288
%%%mzn-stat: variables=518
%%%mzn-stat: propagators=553
%%%mzn-stat: failures=1355
%%%mzn-stat: propagations=243742
%%%mzn-stat: nogoods=1355
%%%mzn-stat: AverageConflictSize=11.94169741697417
%%%mzn-stat: NumUnitNogoodsLearned=380
%%%mzn-stat: AverageLearnedNogoodLength=41.20664206642066
%%%mzn-stat: AverageBacktrackAmount=0
%%%mzn-stat: AverageLbd=5.1321033210332105
%%%mzn-stat-end
